17	4
16	10	10	14	
0	0	0	0	0	3	2	3	4	
5	3	0	0	0	3	7	10	16	
2	0	9	0	0	3	5	12	16	
5	0	1	0	0	3	5	6	8	
6	0	7	0	0	3	10	17	17	
175	0	0	1	0	3	11	13	15	
200	0	0	0	2	3	12	13	17	
25	0	0	0	9	3	9	13	17	
175	0	1	0	0	3	12	17	17	
125	0	0	0	2	1	17	
150	0	0	5	0	3	14	16	17	
225	0	0	0	3	2	17	17	
5	0	0	0	10	1	17	
10	0	0	0	2	1	17	
8	10	0	0	0	3	17	17	17	
5	2	0	0	0	3	17	17	17	
0	0	0	0	0	0	
